
----------------------------------------------------------------------

Tabu Search - BI 	Tenure: 0, MaxIter: 300000

0 9 808 902 343 272 730 659 54 56 216 201 157 269 341 973 513 195 1044 907 926 890 881 882 883 818 860 336 181 739 766 771 736 396 1040 1088 1078 306 156 587 490 159 55 63 162 373 164 146 118 107 143 328 239 834 950 942 274 251 475 1062 1052 1038 996 792 224 901 986 237 794 219 218 214 323 647 340 898 1039 202 242 139 72 297 1041 1054 899 865 221 21 544 541 547 549 546 704 262 686 229 988 1065 518 1085 1028 446 402 1037 948 232 987 287 259 821 212 393 1003 1047 1031 626 1026 1081 397 809 158 403 799 581 746 277 485 617 805 284 93 86 78 772 784 407 1021 598 797 448 414 369 733 554 2 645 537 539 548 542 677 672 553 29 567 75 731 22 810 605 958 1004 265 975 995 999 231 561 559 656 187 14 165 120 170 706 163 735 709 826 710 712 670 714 410 951 936 919 969 246 131 264 310 288 47 675 137 110 125 580 28 685 560 10 26 36 57 79 579 289 504 521 589 696 699 669 636 642 1117 994 452 1114 1113 1102 522 344 741 751 747 732 92 844 729 719 715 52 583 934 914 875 905 1094 600 363 1005 1015 487 627 667 629 457 971 972 878 906 1099 928 966 990 1029 283 155 133 616 286 82 81 648 607 1075 412 463 508 196 510 422 438 447 524 856 842 979 831 198 144 791 785 793 109 49 684 570 34 532 12 572 774 171 172 829 409 787 863 493 798 233 976 451 247 152 273 848 846 456 240 760 18 19 530 51 720 752 358 66 13 644 11 529 563 683 16 24 25 681 813 838 887 869 489 1096 1101 1115 534 935 307 1074 913 492 390 1032 1009 1051 1018 1008 467 368 421 811 820 1014 1095 477 634 606 1019 356 192 800 851 318 124 111 545 113 5 41 355 117 245 145 646 3 552 290 1079 1013 501 1060 279 611 584 625 312 228 437 454 465 981 295 462 480 954 511 666 444 527 1068 430 443 74 577 140 357 436 160 812 322 482 441 469 624 866 775 918 770 275 362 780 241 282 238 742 743 209 734 727 427 1042 1067 1071 1086 1050 631 651 1098 884 858 302 1107 382 381 985 379 378 243 801 351 415 416 585 361 1090 227 205 253 298 1017 1035 1072 1083 1103 849 763 285 728 721 383 1049 920 1063 1024 249 1016 528 643 654 1010 593 1066 333 217 150 213 331 1056 1070 324 620 964 963 930 961 960 180 207 610 586 464 468 635 945 353 756 754 103 135 909 597 280 151 366 342 479 138 115 230 782 506 895 220 711 748 749 623 665 622 628 509 431 329 330 236 332 604 334 335 385 822 750 726 391 652 517 595 983 1027 956 970 959 394 106 459 1036 653 638 432 662 922 889 434 350 321 847 191 166 173 174 795 690 59 60 67 609 603 602 476 619 248 408 613 525 1091 1087 695 868 387 308 1073 1034 1030 309 802 453 588 908 694 406 886 526 497 841 707 85 194 325 300 104 352 266 1080 639 338 360 632 978 349 832 830 740 702 292 582 557 15 17 564 687 657 38 50 722 717 96 99 71 73 599 1045 263 348 536 533 1119 1118 674 641 1110 1109 1108 1106 535 1100 1097 499 392 95 186 944 177 176 590 94 6 574 97 222 892 505 458 874 460 974 1105 470 442 472 862 346 850 852 705 755 768 786 921 867 937 804 531 98 375 193 89 119 313 84 291 859 1022 1025 367 778 365 314 182 188 175 551 550 538 655 540 854 419 716 757 660 433 855 916 102 101 663 591 90 210 753 178 129 688 827 167 762 116 200 815 33 680 678 679 4 7 558 769 982 993 1033 592 915 864 429 912 870 423 825 594 100 823 658 943 861 885 281 466 515 608 199 8 737 112 39 87 132 183 134 23 136 562 565 566 723 839 569 578 77 62 69 401 596 910 190 142 872 637 621 927 953 305 226 147 126 105 339 814 48 42 836 933 932 400 900 502 123 128 471 1007 803 828 388 386 955 894 893 880 817 53 45 788 543 122 161 304 377 80 718 83 68 91 671 556 555 673 32 267 989 764 347 114 873 697 571 141 744 796 575 576 61 903 911 917 371 876 301 745 257 317 700 121 374 293 857 411 127 759 215 484 486 503 507 693 319 435 320 725 724 384 661 761 691 169 35 40 179 235 278 997 516 370 835 833 46 211 1012 837 404 372 840 708 790 843 1092 1084 206 845 819 44 260 43 58 70 698 573 568 20 807 149 789 783 76 689 268 65 64 776 777 208 1082 633 418 184 1059 614 871 500 514 512 1089 612 615 1043 1093 461 491 256 108 27 252 496 495 455 474 445 450 601 952 949 931 923 258 189 225 701 703 395 904 879 481 389 765 154 153 234 303 1053 345 965 148 326 1046 1069 924 925 168 977 337 968 877 425 276 420 888 984 244 271 270 449 473 494 380 426 520 519 650 197 203 424 296 250 364 327 299 37 682 30 31 676 130 767 261 413 713 816 223 398 354 294 992 618 478 185 405 359 1048 1111 1020 428 824 758 254 1002 998 315 498 440 439 1055 1011 991 1057 399 417 773 779 88 738 897 664 255 896 941 1077 1058 1061 957 668 649 940 939 938 962 929 891 204 376 692 853 311 640 523 630 1112 1104 1116 1023 1064 1076 316 488 980 781 967 483 1006 1000 1001 946 947 806 1 0 
(value : 2.09071e+08)	sec. (user time) 10.0434	sec. (CPU time) 10.0431

----------------------------------------------------------------------

Tabu Search - BI 	Tenure: 20, MaxIter: 300000

0 9 808 902 343 272 730 659 54 56 216 201 157 269 341 973 513 195 1044 907 926 571 141 744 796 575 576 61 903 911 917 371 876 301 745 257 317 700 121 374 293 857 411 127 759 215 484 486 503 120 165 14 187 656 559 561 231 999 995 975 265 1004 958 605 810 22 731 75 567 29 553 672 677 542 548 539 537 13 66 358 752 720 51 530 19 18 760 240 456 846 848 273 152 247 451 976 233 798 493 863 787 409 829 172 171 774 572 12 532 34 570 684 49 109 793 1062 475 251 274 942 950 834 520 426 380 494 473 969 246 131 264 679 4 7 558 769 982 993 1033 592 915 864 429 912 870 423 825 594 100 823 658 943 861 885 281 466 515 608 199 8 737 112 39 87 132 183 134 23 136 562 565 566 723 839 569 578 166 173 174 795 690 59 60 67 609 603 602 476 619 248 408 613 525 1091 1087 695 868 387 308 1073 1034 1030 309 802 453 588 908 694 406 886 526 497 841 707 85 194 325 300 104 352 266 1080 639 338 360 632 978 349 832 1002 254 758 824 428 1020 1111 1048 359 405 185 478 182 314 365 778 367 1025 835 370 516 997 278 560 685 28 580 125 509 431 329 330 236 332 604 334 335 385 822 750 726 391 652 517 595 983 1027 956 970 959 394 106 459 1036 653 638 432 662 922 850 346 862 472 442 470 1105 974 460 874 458 776 64 65 268 689 76 783 666 444 527 1068 430 443 74 577 140 357 436 160 812 322 482 441 469 624 866 775 918 770 275 362 780 241 282 238 742 743 209 734 727 427 1042 1067 1071 1086 1050 631 651 1098 884 858 302 1107 382 381 985 379 378 243 801 351 415 416 585 361 1090 227 535 1106 1052 785 791 144 198 831 979 842 856 524 447 705 852 889 434 350 321 847 191 77 62 69 401 596 910 190 142 872 637 621 927 953 305 226 147 126 105 339 814 48 42 836 933 932 400 900 502 123 128 471 1007 803 828 388 386 955 894 893 880 817 53 45 788 543 122 161 304 377 80 718 83 68 91 671 556 555 673 32 267 989 764 347 114 873 697 890 881 882 883 818 860 336 181 739 766 771 736 396 1040 1088 1078 306 156 587 490 159 55 63 162 373 164 146 118 107 143 328 239 519 650 197 203 424 296 250 364 327 299 37 682 30 31 676 130 767 261 413 713 816 223 398 354 294 992 618 188 175 551 550 538 655 540 854 419 716 757 454 437 228 312 625 584 611 279 1060 501 1013 1079 290 552 3 646 145 245 117 355 41 5 113 545 111 462 295 981 465 660 433 855 916 102 101 663 99 96 717 722 50 38 657 687 564 17 15 557 582 292 702 740 830 998 315 498 440 439 1055 1011 991 1057 399 417 773 779 88 738 897 664 255 896 721 383 1049 920 1063 1024 249 1016 528 643 654 1010 593 1066 333 217 150 213 331 1056 1070 324 620 964 963 930 961 960 180 207 610 586 464 468 635 945 353 756 754 103 135 909 597 280 151 366 342 479 138 514 512 1089 612 615 1043 1093 461 491 256 108 27 252 496 495 455 474 445 450 601 952 949 931 923 258 189 225 701 703 395 904 879 481 389 765 154 153 234 303 1053 345 965 148 326 1046 1069 924 155 283 1029 990 966 928 1099 906 878 972 971 457 629 667 627 487 1015 1005 363 600 1094 905 875 914 934 583 52 715 719 729 844 92 732 747 751 741 344 522 1102 647 340 898 1039 202 242 139 72 297 1041 1054 899 865 221 21 544 541 547 549 224 901 986 237 794 219 218 214 323 1113 1114 452 994 1117 642 636 669 699 696 589 521 504 289 579 79 57 36 26 10 235 179 40 35 169 691 761 661 384 724 725 320 435 319 693 507 170 706 163 735 709 826 710 712 670 714 410 951 936 919 449 270 271 244 984 888 420 276 425 877 968 337 977 168 925 133 616 286 82 81 648 607 1075 412 463 508 196 510 422 438 755 768 786 921 867 937 804 531 98 375 193 89 119 313 84 291 859 1022 833 46 211 1012 837 404 372 840 708 790 843 1092 838 887 869 489 1096 1101 1115 534 935 307 1074 913 492 390 1032 1009 1051 1018 1008 467 368 421 811 820 1014 1095 477 634 606 1019 356 192 800 851 318 124 480 954 511 789 149 807 20 568 573 698 70 58 43 260 44 819 845 206 1084 813 681 25 24 16 683 563 529 11 644 645 2 554 733 369 414 448 797 598 1021 407 784 772 78 86 93 284 805 617 485 277 746 581 799 403 158 809 397 1081 1026 626 1031 1047 1003 393 212 821 259 287 987 232 948 1037 402 446 1028 1085 518 1065 988 229 686 262 704 546 792 996 1038 1108 1109 1110 641 674 1118 1119 533 536 348 263 1045 599 73 71 591 90 210 753 178 129 688 827 167 762 116 200 815 33 680 310 678 288 47 675 137 110 628 622 665 623 749 748 711 220 895 506 782 230 115 500 871 614 1059 184 418 633 1082 208 777 505 892 222 97 574 6 94 590 176 177 944 186 95 392 499 1097 1100 205 253 298 1017 1035 1072 1083 1103 849 763 285 728 941 1077 1058 1061 957 668 649 940 939 938 962 929 891 204 376 692 853 311 640 523 630 1112 1104 1116 1023 1064 1076 316 488 980 781 967 483 1006 1000 1001 946 947 806 1 0 
(value : 2.32399e+08)	sec. (user time) 10.0027	sec. (CPU time) 10.0025

----------------------------------------------------------------------

Tabu Search - BI 	Tenure: 180, MaxIter: 300000

0 9 808 902 343 272 730 659 54 56 216 201 157 269 341 973 513 195 1044 907 926 571 141 744 796 575 576 61 903 911 917 371 876 301 745 257 317 700 121 374 293 857 411 127 759 215 484 486 503 120 165 14 187 656 559 561 231 999 995 975 265 1004 958 605 810 22 731 75 567 29 553 672 677 542 548 539 537 13 66 358 752 720 51 530 19 18 760 240 456 846 848 273 152 247 451 976 233 495 496 252 27 108 256 491 461 1093 1043 615 612 1089 512 514 138 479 342 366 151 280 597 909 135 103 754 756 353 945 635 468 464 586 610 207 180 960 961 930 963 964 620 324 1070 1056 331 213 150 217 333 1066 593 1010 654 643 528 1016 249 1024 1063 920 1049 383 721 896 255 664 897 738 88 779 773 417 399 1057 991 1011 1055 439 440 498 315 998 830 740 702 292 582 557 15 17 564 687 657 38 50 722 717 96 99 663 101 102 916 855 433 660 465 981 295 462 111 545 113 5 41 355 117 245 145 646 3 552 290 1079 1013 501 1060 279 611 584 625 312 558 769 982 993 1033 592 915 864 429 912 870 423 825 594 100 823 658 943 861 885 281 466 515 608 199 8 737 112 39 87 132 183 134 23 136 562 565 566 723 839 569 578 166 173 174 878 972 971 457 629 667 627 487 1015 1005 363 600 1094 905 875 914 934 583 52 715 719 729 844 92 732 747 751 741 344 522 1102 647 340 898 1039 202 242 139 72 297 1041 1054 899 865 221 21 544 541 547 549 224 901 986 237 794 219 218 214 323 1113 1114 452 994 1117 642 636 669 699 696 589 521 504 289 579 79 57 36 26 10 235 179 40 35 169 695 868 387 308 1073 1034 1030 309 802 453 588 908 694 406 886 526 497 841 707 85 194 325 300 104 352 266 1080 639 338 360 632 978 349 832 1002 254 758 824 428 1020 1111 1048 359 405 185 478 182 314 365 778 367 1025 835 370 516 997 278 560 685 28 580 125 509 431 329 330 236 332 604 334 335 385 822 750 726 391 652 517 595 983 1027 956 970 959 394 106 459 1036 653 638 432 662 922 850 346 862 472 442 470 1105 974 460 874 458 776 64 65 268 689 76 783 666 444 527 1068 430 443 74 577 140 357 436 160 812 322 482 441 469 624 866 775 918 770 275 362 780 241 282 238 742 743 209 734 727 427 1042 1067 1071 1086 1050 631 651 1098 884 858 302 1107 382 381 985 379 378 243 801 351 415 416 585 361 1090 227 535 1106 1052 785 791 144 198 831 979 842 856 524 447 705 852 889 434 350 321 847 191 77 62 927 621 637 872 142 190 910 596 401 69 953 305 226 147 126 105 339 814 48 42 836 933 932 400 900 502 123 128 471 1007 803 828 388 386 955 894 893 880 817 53 45 788 543 122 161 304 377 80 718 83 68 91 671 556 555 673 32 267 989 764 347 114 873 697 890 881 882 883 818 860 336 181 739 766 771 736 396 1040 1088 1078 306 156 587 490 159 55 63 162 373 164 146 118 107 143 328 239 519 650 197 203 424 296 250 364 327 299 37 682 30 31 676 130 767 261 413 713 816 223 398 354 294 992 618 188 175 551 550 538 655 540 854 419 716 757 454 437 228 7 4 679 264 131 246 969 473 494 380 426 520 834 950 942 274 251 475 1062 793 109 49 684 570 34 532 12 572 774 171 172 829 409 787 863 493 798 455 474 445 450 601 952 949 931 923 258 189 225 701 703 395 904 879 481 389 765 154 153 234 303 1053 345 965 148 326 1046 1069 924 155 283 1029 990 966 928 1099 906 795 690 59 60 67 609 603 602 476 619 248 408 613 525 1091 1087 691 761 661 384 724 725 320 435 319 693 507 170 706 163 735 709 826 710 712 670 714 410 951 936 919 449 270 271 244 984 888 420 276 425 877 968 337 977 168 925 133 616 286 82 81 648 607 1075 412 463 508 196 510 422 438 755 768 786 921 867 937 804 531 98 375 193 89 119 313 84 291 859 1022 833 46 211 1012 837 404 372 840 708 790 843 1092 838 887 869 489 1096 1101 1115 534 935 307 1074 913 492 390 1032 1009 1051 1018 1008 467 368 421 811 820 1014 1095 477 634 606 1019 356 192 800 851 318 124 480 954 511 789 149 807 20 568 573 698 70 58 43 260 44 819 845 206 1084 813 681 25 24 16 683 563 529 11 644 645 2 554 733 369 414 448 797 598 1021 407 784 772 78 86 93 284 805 617 485 277 746 581 799 403 158 809 397 1081 1026 626 1031 1047 1003 393 212 821 259 287 987 232 948 1037 402 446 1028 1085 518 1065 988 229 686 262 704 546 792 996 1038 1108 1109 1110 641 674 1118 1119 533 536 348 263 1045 599 73 71 591 90 210 753 178 129 688 827 167 762 116 200 815 33 680 310 678 288 47 675 137 110 628 622 665 623 749 748 711 220 895 506 782 230 115 500 871 614 1059 184 418 633 1082 208 777 505 892 222 97 574 6 94 590 176 177 944 186 95 392 499 1097 1100 205 253 298 1017 1035 1072 1083 1103 849 763 285 728 941 1077 1058 1061 957 668 649 940 939 938 962 929 891 204 376 692 853 311 640 523 630 1112 1104 1116 1023 1064 1076 316 488 980 781 967 483 1006 1000 1001 946 947 806 1 0 
(value : 2.36638e+08)	sec. (user time) 10.0609	sec. (CPU time) 10.0607

----------------------------------------------------------------------

Tabu Search - BI 	Tenure: 480, MaxIter: 300000

0 9 808 902 343 272 730 659 54 56 216 201 157 269 341 973 513 195 1044 907 926 571 141 744 796 575 576 61 903 911 917 371 876 301 745 257 317 700 121 374 293 857 411 127 759 215 484 486 503 120 165 14 187 656 559 561 231 999 995 975 265 1004 958 605 810 22 731 75 567 29 553 672 677 542 548 539 537 13 66 358 752 720 51 530 19 18 760 240 456 846 848 273 152 247 451 976 233 495 496 252 27 108 256 491 461 1093 1043 615 612 1089 512 514 138 479 342 366 151 280 597 909 135 103 754 756 353 945 635 468 464 586 610 207 180 960 961 930 963 964 620 324 1070 1056 331 213 150 217 333 1066 593 1010 654 643 528 1016 249 1024 1063 920 1049 383 721 896 255 664 897 738 88 779 773 417 399 1057 991 1011 1055 439 440 498 315 998 830 740 702 292 582 557 15 17 564 687 657 38 50 722 717 96 99 663 101 102 916 855 433 660 465 981 295 462 111 545 113 5 41 355 117 245 145 646 3 552 290 1079 1013 501 1060 279 611 584 625 312 558 769 982 993 1033 592 915 864 429 912 870 423 825 594 100 823 658 943 861 885 281 466 515 608 199 8 737 112 39 87 132 183 134 23 136 562 565 566 723 839 569 578 166 173 174 878 972 971 457 629 667 627 487 1015 1005 363 600 1094 905 875 914 934 583 52 715 719 729 844 92 732 747 751 741 344 522 1102 647 340 898 1039 202 242 139 72 297 1041 1054 899 865 221 21 544 541 547 549 224 901 986 237 794 219 218 214 323 1113 1114 452 994 1117 642 636 669 699 696 589 521 504 289 579 79 57 36 26 10 235 179 40 35 169 695 868 387 308 1073 1034 1030 309 802 453 588 908 694 406 886 526 497 841 707 85 194 325 300 104 352 266 1080 639 338 360 632 978 349 832 1002 254 758 824 428 1020 1111 1048 359 405 185 478 182 314 365 778 367 1025 835 370 516 997 278 560 685 28 580 125 509 431 329 330 236 332 604 334 335 385 822 750 726 391 652 517 595 983 1027 956 970 959 394 106 459 1036 653 638 432 662 922 850 346 862 472 442 470 1105 974 460 874 458 776 64 65 268 689 76 783 666 444 527 1068 430 443 74 577 140 357 436 160 812 322 482 441 469 624 866 775 918 770 275 362 780 241 282 238 742 743 209 734 727 427 1042 1067 1071 1086 1050 631 651 1098 884 858 302 1107 382 381 985 379 378 243 801 351 415 416 585 361 1090 227 535 1106 1052 785 791 144 198 831 979 842 856 524 447 705 852 889 434 350 321 847 191 77 62 927 621 637 872 142 190 910 596 401 69 953 305 226 147 126 105 339 814 48 42 836 933 932 400 900 502 123 128 471 1007 803 828 388 386 955 894 893 880 817 53 45 788 543 122 161 304 377 80 718 83 68 91 671 556 555 673 32 267 989 764 347 114 873 697 890 881 882 883 818 860 336 181 739 766 771 736 396 1040 1088 1078 306 156 587 490 159 55 63 162 373 164 146 118 107 143 328 239 519 650 197 203 424 296 250 364 327 299 37 682 30 31 676 130 767 261 413 713 816 223 398 354 294 992 618 188 175 551 550 538 655 540 854 419 716 757 454 437 228 7 4 679 264 131 246 969 473 494 380 426 520 834 950 942 274 251 475 1062 793 109 49 684 570 34 532 12 572 774 171 172 829 409 787 863 493 798 455 474 445 450 601 952 949 931 923 258 189 225 701 703 395 904 879 481 389 765 154 153 234 303 1053 345 965 148 326 1046 1069 924 155 283 1029 990 966 928 1099 906 795 690 59 60 67 609 603 602 476 619 248 408 613 525 1091 1087 691 761 661 384 724 725 320 435 319 693 507 170 706 163 735 709 826 710 712 670 714 410 951 936 919 449 270 271 244 984 888 420 276 425 877 968 337 977 168 925 133 616 286 82 81 648 607 1075 412 463 508 196 510 422 438 755 768 786 921 867 937 804 531 98 375 193 89 119 313 84 291 859 1022 833 46 211 1012 837 404 372 840 708 790 843 1092 838 887 869 489 1096 1101 1115 534 935 307 1074 913 492 390 1032 1009 1051 1018 1008 467 368 421 811 820 1014 1095 477 634 606 1019 356 192 800 851 318 124 480 954 511 789 149 807 20 568 573 698 70 58 43 260 44 819 845 206 1084 813 681 25 24 16 683 563 529 11 644 645 2 554 733 369 414 448 797 598 1021 407 784 772 78 86 93 284 805 617 485 277 746 581 799 403 158 809 397 1081 1026 626 1031 1047 1003 393 212 821 259 287 987 232 948 1037 402 446 1028 1085 518 1065 988 229 686 262 704 546 792 996 1038 1108 1109 1110 641 674 1118 1119 533 536 348 263 1045 599 73 71 591 90 210 753 178 129 688 827 167 762 116 200 815 33 680 310 678 288 47 675 137 110 628 622 665 623 749 748 711 220 895 506 782 230 115 500 871 614 1059 184 418 633 1082 208 777 505 892 222 97 574 6 94 590 176 177 944 186 95 392 499 1097 1100 205 253 298 1017 1035 1072 1083 1103 849 763 285 728 941 1077 1058 1061 957 668 649 940 939 938 962 929 891 204 376 692 853 311 640 523 630 1112 1104 1116 1023 1064 1076 316 488 980 781 967 483 1006 1000 1001 946 947 806 1 0 
(value : 2.36638e+08)	sec. (user time) 10.043	sec. (CPU time) 10.0421
